branch-and-cut/resultados/I080/i080-113.sol
1884
10
26 5
67 7
4 67
1 8
3 26
64 26
64 6
64 67
1 64
64 2
